NAME: europe_tour
TYPE: TSP
DIMENSION: 10
EDGE_WEIGHT_TYPE: GEO
COMMENT: MODERN_GPS_DIPLOMA
NODE_COORD_SECTION
 1 37.996163 -8.789063
 2 40.713956 0.922852
 3 42.617791 -7.954102
 4 47.635784 -2.504883
 5 46.950262 2.680664
 6 48.690960 11.425781
 7 53.146770 10.195313
 8 45.736860 14.458008
 9 42.423457 19.819336
 10 41.738528 25.927734
EOF